24335,
23764,
23306,
22622,
22125,
21350,
20740,
20496,
20496,
19672,
19343,
18324,
18324,
18246,
18102,
18102,
18051,
17758,
17758,
17707,
17707,
17683,
17683,
17683,
17683,
17289,
17289,
17289,
17289,
17254,
17254,
17254,
17254,
17159,
17159,
17159,
17159,
17159,
17159,
17159,
17159,
17159,
16803,
16803,
16803,
16803,
16803,
16803,
16803,
16803,
16803,
16803,
16803,
16523,
16523,
16523,
16523,
16523,
16517,
16517,
16517,
16517,
16517,
16517,
16517,
16469,
16469,
16469,
16469,
16469,
16469,
16469,
16469,
16335,
16335,
15699,
15699,
15699,
15699,
15699,
15699,
15699,
15699,
15699,
15699,
15699,
15696,
15696,
15696,
15696,
15696,
15696,
15696,
15696,
15696,
15696,
15696,
15676,
15659,
15659,
15639,
15639,
15639,
15639,
15639,
15639,
15639,
15639,
15639,
15639,
15639,
15639,
15639,
15639,
15639,
15639,
15524,
15524,
15524,
15524,
15524,
15524,
15524,
15391,
15383,
15383,
15383,
15383,
15383,
15383,
15383,
15383,
15383,
15383,
15383,
15383,
15383,
15383,
15383,
15383,
15383,
15383,
15383,
15383,
15344,
15344,
15344,
15344,
15344,
15344,
15344,
15344,
15344,
15344,
15344,
15344,
15344,
15344,
15344,
15307,
15307,
15307,
15307,
15307,
15307,
15307,
15305,
15305,
15305,
15305,
15305,
15305,
15305,
15290,
15290,
15290,
15290,
15290,
15290,
14965,
14965,
14965,
14890,
14890,
14890,
14890,
14890,
14890,
14890,
14890,
14890,
14890,
14890,
14890,
14890,
14851,
14849,
14810,
14810,
14810,
14810,
14810,
14810,
14810,
14810,
14810,
14810,
14810,
14810,
14810,
14810,
14810,
14810,
14810,
14810,
14810,
14810,
14810,
14810,
14810,
14810,
14810,
14810,
14810,
14810,
14810,
14810,
14810,
14810,
14810,
14810,
14810,
14810,
14736,
14736,
14736,
14736,
14736,
14736,
14736,
14736,
14736,
14736,
14736,
14736,
14736,
14736,
14736,
14736,
14736,
14736,
14736,
14658,
14658,
14658,
14658,
14658,
14658,
14658,
14658,
14596,
14596,
14596,
14596,
14596,
14596,
14596,
14596,
14596,
14596,
14596,
14596,
14596,
14596,
14596,
14596,
14596,
14596,
14596,
14596,
14596,
14596,
14596,
14510,
14510,
14510,
14510,
14510,
14510,
14510,
14510,
14510,
14510,
14510,
14510,
14510,
14510,
14510,
14510,
14510,
14510,
14510,
14510,
14510,
14510,
14510,
14510,
14510,
14510,
14510,
14461,
14461,
14461,
14461,
14461,
14461,
14461,
14461,
14461,
14461,
14461,
14461,
14461,
14461,
14461,
14461,
14461,
14461,
14461,
14461,
14461,
14461,
14461,
14461,
14461,
14461,
14461,
14461,
14461,
14461,
14461,
14461,
14461,
14414,
14414,
14414,
14414,
14414,
14414,
14414,
14414,
14414,
14414,
14414,
14414,
14414,
14414,
14414,
14414,
14414,
14414,
14414,
14414,
14414,
14414,
14414,
14414,
14414,
14414,
14414,
14414,
14414,
14414,
14414,
14414,
14414,
14414,
14414,
14414,
14414,
14414,
14414,
14414,
14414,
14414,
14414,
14414,
14414,
14414,
14414,
14414,
14414,
14414,
14414,
14414,
14414,
14414,
14414,
14414,
14414,
14414,
14414,
14414,
14414,
14414,
14414,
14414,
14414,
14414,
14414,
14414,
14414,
14414,
14414,
14414,
14414,
14414,
14414,
14414,
14414,
14414,
14414,
14340,
14340,
14340,
14340,
14340,
14340,
14340,
14340,
14340,
14340,
14340,
14340,
14340,
14340,
14340,
14310,
14310,
14310,
14226,
14152,
14152,
14152,
14152,
14117,
14117,
14117,
14117,
14117,
14117,
14117,
14117,
14117,
14117,
14117,
14117,
14037,
14037,
14037,
14037,
14037,
14037,
14037,
14037,
14037,
14037,
14037,
14037,
14037,
14037,
14037,
14037,
14037,
14037,
14037,
14037,
14037,
14037,
14037,
14037,
14037,
14037,
14037,
14037,
14037,
14037,
14037,
14037,
14037,
14037,
14037,
14037,
14037,
14037,
14037,
14037,
14037,
14037,
14037,
14037,
14037,
14037,
14037,
14037,
14037,
14037,
14037,
14037,
14037,
14037,
14037,
14037,
14037,
14037,
14037,
14037,
14037,
14030,
14030,
14030,
14030,
13863,
13863,
13863,
13863,
13863,
13863,
13863,
13863,
13863,
13863,
13863,
13863,
13863,
13863,
13863,
13863,
13863,
13863,
13863,
13802,
13802,
13802,
13802,
13802,
13802,
13802,
13802,
13802,
13802,
13802,
13802,
13802,
13802,
13802,
13802,
13802,
13802,
13802,
13802,
13802,
13802,
13802,
13802,
13802,
13802,
13802,
13802,
13802,
13802,
13802,
13802,
13802,
13802,
13802,
13802,
13802,
13717,
13717,
13717,
13717,
13717,
13717,
13717,
13717,
13717,
13717,
13717,
13717,
13717,
13717,
13717,
13717,
13717,
13717,
13717,
13717,
13717,
13717,
13717,
13717,
13717,
13717,
13717,
13717,
13717,
13717,
13717,
13717,
13717,
13717,
13717,
13717,
13717,
13717,
13717,
13717,
13717,
13717,
13717,
13717,
13717,
13717,
13717,
13717,
13717,
13717,
13717,
13717,
13717,
13717,
13717,
13717,
13717,
13717,
13717,
13717,
13717,
13717,
13717,
13717,
13717,
13717,
13717,
13717,
13717,
13717,
13717,
13717,
13717,
13717,
13717,
13717,
13717,
13717,
13717,
13717,
13717,
13666,
13666,
13666,
13666,
13666,
13666,
13666,
13666,
13666,
13666,
13666,
13666,
13666,
13666,
13666,
13666,
13666,
13666,
13666,
13666,
13666,
13666,
13666,
13666,
13666,
13666,
13666,
13666,
13621,
13621,
13621,
13621,
13621,
13621,
13621,
13621,
13621,
13621,
13621,
13621,
13621,
13443,
13443,
13443,
13443,
13443,
13443,
13443,
13443,
13443,
13443,
13443,
13443,
13443,
13443,
13443,
13443,
13443,
13443,
13443,
13443,
13356,
13356,
13356,
13356,
13356,
13356,
13356,
13356,
13356,
13295,
13295,
13295,
13293,
13293,
13293,
13293,
13293,
13293,
13293,
13293,
13293,
13293,
13293,
13293,
13293,
13293,
13293,
13293,
13240,
13240,
13240,
13240,
13240,
13240,
13240,
13240,
13240,
13240,
13240,
13240,
13240,
13240,
13240,
13240,
13240,
13240,
13240,
13240,
13240,
13240,
13240,
13240,
13240,
13240,
13240,
13240,
13240,
13240,
13240,
13240,
13240,
13240,
13240,
13240,
13240,
13240,
13240,
13240,
13240,
13240,
13240,
13214,
13214,
13214,
13201,
13201,
13201,
13201,
13201,
13201,
13201,
13201,
13201,
13201,
13201,
13201,
13201,
13201,
13201,
13201,
13201,
13201,
13201,
13201,
13201,
13201,
13201,
13201,
13201,
13201,
13201,
13201,
13201,
13201,
13201,
13201,
13201,
13201,
13201,
13201,
13201,
13201,
13201,
13201,
13201,
13201,
13201,
13201,
13201,
13201,
13201,
13201,
13201,
13201,
13201,
13201,
13201,
13201,
13201,
13201,
13201,
13172,
13172,
13172,
13172,
13172,
13172,
13172,
13172,
13172,
13172,
13172,
13149,
13149,
13149,
13149,
13149,
13149,
13149,
13149,
13149,
13149,
13149,
13149,
13149,
13149,
13149,
13149,
13149,
13149,
13149,
13149,
13149,
13149,
13149,
13149,
13149,
13149,
13149,
13149,
13149,
12983,
12983,
12983,
12983,
12983,
12983,
12983,
12983,
12983,
12983,
12983,
12983,
12776,
12776,
12776,
12776,
12776,
12776,
12776,
12776,
12776,
12776,
12776,
12776,
12776,
12776,
12776,
12776,
12776,
12776,
12776,
12776,
12776,
12776,
12776,
12776,
12776,
12776,
12776,
12776,
12776,
12776,
12776,
12776,
12776,
12776,
12776,
12776,
12776,
12776,
12776,
12776,
12776,
12776,
12776,
12776,
12719,
12719,
12719,
12719,
12701,
12701,
12701,
12660,
12660,
12660,
12660,
12660,
12660,
12660,
12660,
12660,
12660,
12660,
12660,
12660,
12660,
12660,
12660,
12660,
12559,
12559,
12559,
12559,
12559,
12559,
12559,
12559,
12559,
12559,
12559,
12559,
12559,
12559,
12559,
12559,
12559,
12559,
12559,
12559,
12559,
12559,
12559,
12559,
12559,
12559,
12559,
12559,
12559,
12559,
12559,
12559,
12559,
12559,
12471,
12471,
12471,
12471,
12471,
12471,
12471,
12471,
12471,
12471,
12471,
12471,
12471,
12471,
12471,
12471,
12471,
12471,
12471,
12471,
12471,
12471,
12471,
12471,
12471,
12471,
12471,
12471,
12471,
12471,
12471,
12471,
12471,
12471,
12471,
12471,
12471,
12471,
12471,
12471,
12471,
12471,
12471,
12471,
12471,
12471,
12471,
12471,
12471,
12471,
12471,
12471,
12471,
12471,
12471,
12471,
12471,
12471,
12471,
12471,
12471,
12471,
12471,
12471,
12471,
12471,
12471,
12471,
12471,
12471,
12471,
12471,
12471,
12471,
12471,
12471,
12471,
12471,
12471,
12471,
12471,
12190,
12190,
12190,
12190,
12190,
12190,
12190,
12190,
12190,
12190,
12190,
12010,
12010,
12010,
12010,
12010,
12010,
12010,
12010,
12010,
12010,
12010,
12010,
12010,
12010,
12010,
12010,
12010,
12010,
12010,
12010,
12010,
12010,
12010,
12010,
12010,
12010,
12010,
12010,
12010,
12010,
12010,
12010,
12010,
12010,
12010,
12010,
12010,
12010,
12010,
12010,
12010,
12010,
12010,
12010,
12010,
12010,
12010,
12010,
12010,
12010,
12010,
12010,
12010,
12010,
12010,
12010,
12010,
12010,
12010,
12010,
12010,
12010,
12010,
12010,
12010,
12010,
12010,
12010,
12010,
12010,
12010,
12010,
12010,
12010,
12010,
12010,
12010,
12010,
12010,
12010,
12010,
12010,
12010,
12010,
12010,
12010,
12010,
12010,
12010,
12010,
12010,
12010,
12010,
12010,
12010,
12010,
12010,
12010,
12010,
12010,
12010,
12010,
12010,
12010,
12010,
12010,
12010,
12010,
12010,
12010,
12010,
12010,
12010,
12010,
12010,
12010,
12010,
12010,
12010,
12010,
12010,
12010,
12010,
12010,
12010,
12010,
12010,
12010,
12010,
12010,
12010,
12010,
12010,
12010,
12010,
12010,
12010,
12010,
12010,
12010,
12010,
12010,
12010,
12010,
12010,
12010,
12010,
12010,
12010,
12010,
12010,
12010,
12010,
12010,
12010,
12010,
12010,
12010,
12010,
12010,
12010,
12010,
12010,
12010,
12010,
12010,
12010,
12010,
12010,
12010,
12010,
12010,
12010,
12010,
12010,
12010,
12010,
12010,
12010,
12010,
12010,
12010,
12010,
12010,
12010,
12010,
11959,
11959,
11959,
11959,
11959,
11959,
11959,
11959,
11959,
11959,
11959,
11959,
11959,
11959,
11959,
11959,
11959,
11959,
11959,
11959,
11959,
11959,
11959,
11959,
11959,
11959,
11959,
11959,
11959,
11959,
11959,
11959,
11959,
11959,
11959,
11959,
11959,
11959,
11959,
11959,
11959,
11959,
11959,
11959,
11959,
11959,
11959,
11959,
11959,
11959,
11959,
11959,
11959,
11959,
11959,
11959,
11959,
11959,
11959,
11959,
11959,
11959,
11802,
11802,
11802,
11802,
11802,
11802,
11802,
11802,
11802,
11802,
11802,
11802,
11802,
11802,
11802,
11802,
11802,
11802,
11802,
11802,
11802,
11802,
11802,
11802,
11802,
11802,
11802,
11802,
11802,
11802,
11802,
11802,
11802,
11802,
11802,
11802,
11802,
11802,
11802,
11802,
11802,
11802,
11802,
11802,
11802,
11802,
11802,
11802,
11802,
11802,
11802,
11802,
11802,
11802,
11802,
11802,
11802,
11802,
11802,
11802,
11802,
11802,
11802,
11802,
11802,
11802,
11802,
11802,
11802,
11802,
11802,
11802,
11802,
11802,
11793,
11793,
11793,
11793,
11784,
11784,
11784,
11784,
11784,
11784,
11784,
11784,
11784,
11784,
11784,
11784,
11784,
11784,
11784,
11784,
11784,
11784,
11784,
11784,
11784,
11784,
11784,
11784,
11784,
11784,
11784,
11784,
11784,
11784,
11784,
11784,
11784,
11784,
11784,
11784,
11784,
11784,
11784,
11784,
11784,
11784,
11784,
11784,
11784,
11784,
11784,
11784,
11784,
11784,
11784,
11784,
11784,
11784,
11784,
11784,
11784,
11784,
11784,
11784,
11784,
11784,
11784,
11784,
11784,
11784,
11784,
11784,
11784,
11784,
11784,
11784,
11784,
11784,
11784,
11784,
11784,
11784,
1,
